PROBLEM NAME: small_10_BoundedStronglyCorrelated_n14_m39_c5
KNAPSACK DATA TYPE:
DIMENSION: 14
NUMBER OF ITEMS: 39
CAPACITY OF KNAPSACK: 10560
MIN SPEED: 0.1
MAX SPEED: 1.0
RENTING RATIO: 1.0
EDGE_WEIGHT_TYPE: CEIL_2D
NODE_COORD_SECTION	(INDEX, X, Y): 
1	885	617
2	304	338
3	132	461
4	316	203
5	584	446
6	822	637
7	112	669
8	214	899
9	903	560
10	317	644
11	279	623
12	7	956
13	830	575
14	302	181
ITEMS SECTION	(INDEX, PROFIT, WEIGHT, ASSIGNED NODE NUMBER): 
1	202	102	2
2	630	530	2
3	583	483	2
4	1038	938	3
5	625	525	3
6	619	519	3
7	713	613	4
8	605	505	4
9	546	446	4
10	133	33	5
11	938	838	5
12	684	584	5
13	1025	925	6
14	1045	945	6
15	1020	920	6
16	709	609	7
17	779	679	7
18	977	877	7
19	406	306	8
20	285	185	8
21	724	624	8
22	574	474	9
23	1030	930	9
24	811	711	9
25	818	718	10
26	1065	965	10
27	150	50	10
28	1035	935	11
29	1002	902	11
30	237	137	11
31	571	471	12
32	649	549	12
33	933	833	12
34	1093	993	13
35	407	307	13
36	183	83	13
37	1097	997	14
38	559	459	14
39	634	534	14
